10 20
0 180 184 152 916 374 868 774 111 417
180 0 220 36 784 255 787 694 223 335
184 220 0 186 1004 474 1001 907 92 545
152 36 186 0 820 288 818 724 187 364
916 784 1004 820 0 542 294 303 1000 514
374 255 474 288 542 0 534 442 459 104
868 787 1001 818 294 534 0 94 970 456
774 694 907 724 303 442 94 0 876 362
111 223 92 187 1000 459 970 876 0 516
417 335 545 364 514 104 456 362 516 0
3 7 72
4 6 29
8 9 51
1 6 78
7 1 69
6 8 97
5 0 37
5 6 53
5 3 28
9 1 33
8 5 45
9 4 51
0 7 77
6 1 78
6 4 29
3 5 28
3 8 18
8 4 100
0 3 15
2 9 54
